Welcome to the CBC MILP Solver 
Version: 2.10.3 
Build Date: Dec 15 2019 

command line - /home/cdmonsalvea/AI_OR_Workflow/.venv/lib/python3.10/site-packages/pulp/solverdir/cbc/linux/64/cbc /tmp/aaaa8064b3c94263b7472c1aa469c84b-pulp.mps -sec 3600 -timeMode elapsed -branch -printingOptions all -solution /tmp/aaaa8064b3c94263b7472c1aa469c84b-pulp.sol (default strategy 1)
At line 2 NAME          MODEL
At line 3 ROWS
At line 43 COLUMNS
At line 1184 RHS
At line 1223 BOUNDS
At line 1243 ENDATA
Problem MODEL has 38 rows, 380 columns and 741 elements
Coin0008I MODEL read with 0 errors
seconds was changed from 1e+100 to 3600
Option for timeMode changed from cpu to elapsed
Continuous objective value is 2.09353e+07 - 0.00 seconds
Cgl0004I processed model has 38 rows, 380 columns (19 integer (19 of which binary)) and 741 elements
Cbc0038I Initial state - 19 integers unsatisfied sum - 4.33462
Cbc0038I Pass   1: suminf.    0.00000 (0) obj. 2.88865e+08 iterations 19
Cbc0038I Solution found of 2.88865e+08
Cbc0038I Relaxing continuous gives 1.26451e+08
Cbc0038I Before mini branch and bound, 0 integers at bound fixed and 325 continuous
Cbc0038I Full problem 38 rows 380 columns, reduced to 33 rows 47 columns
Cbc0038I Mini branch and bound improved solution from 1.26451e+08 to 6.66851e+07 (0.01 seconds)
Cbc0038I Freeing continuous variables gives a solution of 6.33247e+07
Cbc0038I Round again with cutoff of 5.90857e+07
Cbc0038I Pass   2: suminf.    1.19011 (7) obj. 5.90857e+07 iterations 23
Cbc0038I Pass   3: suminf.    0.16754 (2) obj. 5.90857e+07 iterations 18
Cbc0038I Pass   4: suminf.    0.34470 (3) obj. 5.90857e+07 iterations 6
Cbc0038I Pass   5: suminf.    0.61831 (3) obj. 5.90857e+07 iterations 10
Cbc0038I Pass   6: suminf.    1.32821 (4) obj. 5.90857e+07 iterations 7
Cbc0038I Pass   7: suminf.    1.32821 (4) obj. 5.90857e+07 iterations 0
Cbc0038I Pass   8: suminf.    1.85830 (4) obj. 5.90857e+07 iterations 2
Cbc0038I Pass   9: suminf.    1.30363 (4) obj. 5.90857e+07 iterations 1
Cbc0038I Pass  10: suminf.    1.32821 (4) obj. 5.90857e+07 iterations 2
Cbc0038I Pass  11: suminf.    1.56923 (5) obj. 5.90857e+07 iterations 7
Cbc0038I Pass  12: suminf.    1.41201 (4) obj. 5.90857e+07 iterations 2
Cbc0038I Pass  13: suminf.    1.83245 (5) obj. 5.90857e+07 iterations 4
Cbc0038I Pass  14: suminf.    1.83245 (5) obj. 5.90857e+07 iterations 0
Cbc0038I Pass  15: suminf.    1.28781 (3) obj. 5.90857e+07 iterations 4
Cbc0038I Pass  16: suminf.    1.26794 (3) obj. 5.90857e+07 iterations 1
Cbc0038I Pass  17: suminf.    0.92368 (3) obj. 5.90857e+07 iterations 5
Cbc0038I Pass  18: suminf.    1.26794 (3) obj. 5.90857e+07 iterations 4
Cbc0038I Pass  19: suminf.    0.60418 (3) obj. 5.90857e+07 iterations 5
Cbc0038I Pass  20: suminf.    1.26794 (3) obj. 5.90857e+07 iterations 4
Cbc0038I Pass  21: suminf.    0.34479 (4) obj. 5.90857e+07 iterations 13
Cbc0038I Pass  22: suminf.    1.83245 (5) obj. 5.90857e+07 iterations 9
Cbc0038I Pass  23: suminf.    1.83245 (5) obj. 5.90857e+07 iterations 0
Cbc0038I Pass  24: suminf.    1.28781 (3) obj. 5.90857e+07 iterations 4
Cbc0038I Pass  25: suminf.    1.26794 (3) obj. 5.90857e+07 iterations 1
Cbc0038I Pass  26: suminf.    0.38934 (3) obj. 5.90857e+07 iterations 10
Cbc0038I Pass  27: suminf.    1.26794 (3) obj. 5.90857e+07 iterations 6
Cbc0038I Pass  28: suminf.    0.38269 (3) obj. 5.90857e+07 iterations 7
Cbc0038I Pass  29: suminf.    1.32821 (4) obj. 5.90857e+07 iterations 7
Cbc0038I Pass  30: suminf.    1.32821 (4) obj. 5.90857e+07 iterations 0
Cbc0038I Pass  31: suminf.    1.85830 (4) obj. 5.90857e+07 iterations 2
Cbc0038I No solution found this major pass
Cbc0038I Before mini branch and bound, 0 integers at bound fixed and 322 continuous
Cbc0038I Full problem 38 rows 380 columns, reduced to 24 rows 43 columns
Cbc0038I Mini branch and bound improved solution from 6.33247e+07 to 5.87694e+07 (0.02 seconds)
Cbc0038I Freeing continuous variables gives a solution of 5.8658e+07
Cbc0038I Round again with cutoff of 5.11135e+07
Cbc0038I Pass  31: suminf.    1.44079 (8) obj. 5.11135e+07 iterations 2
Cbc0038I Pass  32: suminf.    0.78418 (5) obj. 5.11135e+07 iterations 19
Cbc0038I Pass  33: suminf.    2.21528 (7) obj. 5.11135e+07 iterations 11
Cbc0038I Pass  34: suminf.    2.01670 (7) obj. 5.11135e+07 iterations 2
Cbc0038I Pass  35: suminf.    2.14245 (7) obj. 5.11135e+07 iterations 3
Cbc0038I Pass  36: suminf.    1.74959 (5) obj. 5.11135e+07 iterations 3
Cbc0038I Pass  37: suminf.    2.01752 (6) obj. 5.11135e+07 iterations 3
Cbc0038I Pass  38: suminf.    1.53842 (5) obj. 5.11135e+07 iterations 5
Cbc0038I Pass  39: suminf.    1.25562 (5) obj. 5.11135e+07 iterations 3
Cbc0038I Pass  40: suminf.    2.01752 (6) obj. 5.11135e+07 iterations 6
Cbc0038I Pass  41: suminf.    1.84253 (5) obj. 5.11135e+07 iterations 5
Cbc0038I Pass  42: suminf.    1.83967 (6) obj. 5.11135e+07 iterations 2
Cbc0038I Pass  43: suminf.    1.34810 (5) obj. 5.11135e+07 iterations 3
Cbc0038I Pass  44: suminf.    2.01752 (6) obj. 5.11135e+07 iterations 7
Cbc0038I Pass  45: suminf.    1.74959 (5) obj. 5.11135e+07 iterations 2
Cbc0038I Pass  46: suminf.    2.01752 (6) obj. 5.11135e+07 iterations 3
Cbc0038I Pass  47: suminf.    1.08709 (3) obj. 5.11135e+07 iterations 12
Cbc0038I Pass  48: suminf.    0.40715 (4) obj. 5.11135e+07 iterations 5
Cbc0038I Pass  49: suminf.    1.74467 (5) obj. 5.11135e+07 iterations 10
Cbc0038I Pass  50: suminf.    2.01752 (6) obj. 5.11135e+07 iterations 3
Cbc0038I Pass  51: suminf.    1.74959 (5) obj. 5.11135e+07 iterations 2
Cbc0038I Pass  52: suminf.    2.01752 (6) obj. 5.11135e+07 iterations 3
Cbc0038I Pass  53: suminf.    2.01752 (6) obj. 5.11135e+07 iterations 0
Cbc0038I Pass  54: suminf.    2.01752 (6) obj. 5.11135e+07 iterations 0
Cbc0038I Pass  55: suminf.    1.56539 (6) obj. 5.11135e+07 iterations 9
Cbc0038I Pass  56: suminf.    1.52027 (6) obj. 5.11135e+07 iterations 1
Cbc0038I Pass  57: suminf.    2.14245 (7) obj. 5.11135e+07 iterations 7
Cbc0038I Pass  58: suminf.    2.01733 (6) obj. 5.11135e+07 iterations 7
Cbc0038I Pass  59: suminf.    2.01733 (6) obj. 5.11135e+07 iterations 0
Cbc0038I Pass  60: suminf.    2.01752 (6) obj. 5.11135e+07 iterations 5
Cbc0038I Rounding solution of 5.81879e+07 is better than previous of 5.8658e+07

Cbc0038I Before mini branch and bound, 0 integers at bound fixed and 324 continuous
Cbc0038I Full problem 38 rows 380 columns, reduced to 23 rows 40 columns
Cbc0038I Mini branch and bound improved solution from 5.81879e+07 to 5.45825e+07 (0.03 seconds)
Cbc0038I Round again with cutoff of 4.206e+07
Cbc0038I Pass  60: suminf.    1.78821 (10) obj. 4.206e+07 iterations 2
Cbc0038I Pass  61: suminf.    3.01434 (11) obj. 4.206e+07 iterations 21
Cbc0038I Pass  62: suminf.    3.01434 (11) obj. 4.206e+07 iterations 0
Cbc0038I Pass  63: suminf.    2.31079 (11) obj. 4.206e+07 iterations 5
Cbc0038I Pass  64: suminf.    2.31079 (11) obj. 4.206e+07 iterations 0
Cbc0038I Pass  65: suminf.    2.51407 (11) obj. 4.206e+07 iterations 2
Cbc0038I Pass  66: suminf.    2.51407 (11) obj. 4.206e+07 iterations 0
Cbc0038I Pass  67: suminf.    2.31079 (11) obj. 4.206e+07 iterations 2
Cbc0038I Pass  68: suminf.    2.45367 (10) obj. 4.206e+07 iterations 6
Cbc0038I Pass  69: suminf.    2.45367 (10) obj. 4.206e+07 iterations 0
Cbc0038I Pass  70: suminf.    2.31079 (11) obj. 4.206e+07 iterations 6
Cbc0038I Pass  71: suminf.    2.31079 (11) obj. 4.206e+07 iterations 0
Cbc0038I Pass  72: suminf.    2.51407 (11) obj. 4.206e+07 iterations 2
Cbc0038I Pass  73: suminf.    2.51407 (11) obj. 4.206e+07 iterations 0
Cbc0038I Pass  74: suminf.    2.31079 (11) obj. 4.206e+07 iterations 2
Cbc0038I Pass  75: suminf.    2.92769 (11) obj. 4.206e+07 iterations 7
Cbc0038I Pass  76: suminf.    2.70968 (11) obj. 4.206e+07 iterations 4
Cbc0038I Pass  77: suminf.    1.59810 (8) obj. 4.206e+07 iterations 13
Cbc0038I Pass  78: suminf.    2.52880 (10) obj. 4.206e+07 iterations 15
Cbc0038I Pass  79: suminf.    2.31079 (11) obj. 4.206e+07 iterations 2
Cbc0038I Pass  80: suminf.    2.51407 (11) obj. 4.206e+07 iterations 4
Cbc0038I Pass  81: suminf.    2.51407 (11) obj. 4.206e+07 iterations 0
Cbc0038I Pass  82: suminf.    2.31079 (11) obj. 4.206e+07 iterations 2
Cbc0038I Pass  83: suminf.    1.91311 (10) obj. 4.206e+07 iterations 5
Cbc0038I Pass  84: suminf.    1.82096 (10) obj. 4.206e+07 iterations 1
Cbc0038I Pass  85: suminf.    2.52880 (10) obj. 4.206e+07 iterations 6
Cbc0038I Pass  86: suminf.    2.31079 (11) obj. 4.206e+07 iterations 2
Cbc0038I Pass  87: suminf.    2.51407 (11) obj. 4.206e+07 iterations 2
Cbc0038I Pass  88: suminf.    2.51407 (11) obj. 4.206e+07 iterations 0
Cbc0038I Pass  89: suminf.    2.31079 (11) obj. 4.206e+07 iterations 2
Cbc0038I No solution found this major pass
Cbc0038I Before mini branch and bound, 0 integers at bound fixed and 332 continuous
Cbc0038I Full problem 38 rows 380 columns, reduced to 16 rows 24 columns
Cbc0038I Mini branch and bound did not improve solution (0.04 seconds)
Cbc0038I After 0.04 seconds - Feasibility pump exiting with objective of 5.45825e+07 - took 0.04 seconds
Cbc0012I Integer solution of 54582549 found by feasibility pump after 0 iterations and 0 nodes (0.04 seconds)
Cbc0031I 21 added rows had average density of 23.52381
Cbc0013I At root node, 21 cuts changed objective from 20935259 to 53254046 in 3 passes
Cbc0014I Cut generator 0 (Probing) - 0 row cuts average 0.0 elements, 0 column cuts (0 active)  in 0.001 seconds - new frequency is -100
Cbc0014I Cut generator 1 (Gomory) - 20 row cuts average 20.9 elements, 0 column cuts (0 active)  in 0.000 seconds - new frequency is 1
Cbc0014I Cut generator 2 (Knapsack) - 0 row cuts average 0.0 elements, 0 column cuts (0 active)  in 0.000 seconds - new frequency is -100
Cbc0014I Cut generator 3 (Clique) - 0 row cuts average 0.0 elements, 0 column cuts (0 active)  in 0.000 seconds - new frequency is -100
Cbc0014I Cut generator 4 (MixedIntegerRounding2) - 0 row cuts average 0.0 elements, 0 column cuts (0 active)  in 0.000 seconds - new frequency is -100
Cbc0014I Cut generator 5 (FlowCover) - 0 row cuts average 0.0 elements, 0 column cuts (0 active)  in 0.000 seconds - new frequency is -100
Cbc0014I Cut generator 6 (TwoMirCuts) - 21 row cuts average 23.5 elements, 0 column cuts (0 active)  in 0.000 seconds - new frequency is 1
Cbc0001I Search completed - best objective 54582549.29889242, took 30 iterations and 0 nodes (0.05 seconds)
Cbc0032I Strong branching done 4 times (9 iterations), fathomed 1 nodes and fixed 0 variables
Cbc0035I Maximum depth 0, 0 variables fixed on reduced cost
Cuts at root node changed objective from 2.09353e+07 to 5.68225e+07
Probing was tried 3 times and created 0 cuts of which 0 were active after adding rounds of cuts (0.001 seconds)
Gomory was tried 3 times and created 20 cuts of which 0 were active after adding rounds of cuts (0.000 seconds)
Knapsack was tried 3 times and created 0 cuts of which 0 were active after adding rounds of cuts (0.000 seconds)
Clique was tried 3 times and created 0 cuts of which 0 were active after adding rounds of cuts (0.000 seconds)
MixedIntegerRounding2 was tried 3 times and created 0 cuts of which 0 were active after adding rounds of cuts (0.000 seconds)
FlowCover was tried 3 times and created 0 cuts of which 0 were active after adding rounds of cuts (0.000 seconds)
TwoMirCuts was tried 3 times and created 21 cuts of which 0 were active after adding rounds of cuts (0.000 seconds)
ZeroHalf was tried 1 times and created 0 cuts of which 0 were active after adding rounds of cuts (0.000 seconds)

Result - Optimal solution found

Objective value:                54582549.29889242
Enumerated nodes:               0
Total iterations:               30
Time (CPU seconds):             0.05
Time (Wallclock seconds):       0.05

Option for printingOptions changed from normal to all
Total time (CPU seconds):       0.05   (Wallclock seconds):       0.05

